p cnf 37 96
-1 -2 0
-3 -4 0
5 0
-5 1 6 0
-5 -1 7 0
-6 -7 0
-6 2 8 0
-6 -2 9 0
-7 2 10 0
-7 -2 11 0
-8 -10 0
-8 -9 0
-8 -11 0
-10 -9 0
-10 -11 0
-9 -11 0
10 0
12 0
-12 1 13 0
-12 -1 14 0
-13 -14 0
-13 2 15 0
-13 -2 16 0
-14 2 17 0
-14 -2 18 0
-15 -17 0
-15 -16 0
-15 -18 0
-17 -16 0
-17 -18 0
-16 -18 0
-15 3 19 0
-15 -3 20 0
-16 3 21 0
-16 -3 22 0
-17 3 20 0
-17 -3 21 0
-18 3 22 0
-18 -3 23 0
-19 -20 0
-19 -21 0
-19 -22 0
-19 -23 0
-20 -21 0
-20 -22 0
-20 -23 0
-21 -22 0
-21 -23 0
-22 -23 0
-19 4 24 0
-19 -4 25 0
-20 4 26 0
-20 -4 27 0
-21 4 25 0
-21 -4 28 0
-22 4 27 0
-22 -4 29 0
-23 4 28 0
-23 -4 30 0
-24 -26 0
-24 -25 0
-24 -27 0
-24 -28 0
-24 -29 0
-24 -30 0
-26 -25 0
-26 -27 0
-26 -28 0
-26 -29 0
-26 -30 0
-25 -27 0
-25 -28 0
-25 -29 0
-25 -30 0
-27 -28 0
-27 -29 0
-27 -30 0
-28 -29 0
-28 -30 0
-29 -30 0
25 0
31 0
-31 3 32 0
-31 -3 33 0
-32 -33 0
-32 4 34 0
-32 -4 35 0
-33 4 36 0
-33 -4 37 0
-34 -36 0
-34 -35 0
-34 -37 0
-36 -35 0
-36 -37 0
-35 -37 0
36 0
